n = 8;
T = 10;
f = [5];

G = [|0, 1, 0, 1, 1, 0, 0, 0
     |1, 0, 1, 0, 0, 1, 0, 0
     |0, 1, 0, 0, 1, 0, 0, 0
     |1, 0, 0, 0, 0, 1, 0, 0
     |1, 0, 1, 0, 0, 0, 1, 1
     |0, 1, 0, 1, 0, 0, 1, 0
     |0, 0, 0, 0, 1, 1, 0, 1
     |0, 0, 0, 0, 1, 0, 1, 0
|];

budget  = 1;
